<?xml version="1.0" encoding="UTF-8"?><osil xmlns="os.optimizationservices.org" xmlns:xsi="http://www.w3.org/2001/XMLSchema-instance" xsi:schemaLocation="os.optimizationservices.org http://www.optimizationservices.org/schemas/2.0/OSiL.xsd"><instanceHeader><name>ghg_1veh</name></instanceHeader><instanceData><variables numberOfVariables="29"><var name="b1" type="B" ub="1"/><var name="b2" type="B" ub="1"/><var name="b3" type="B" ub="1"/><var name="b4" type="B" ub="1"/><var name="b5" type="B" ub="1"/><var name="b6" type="B" ub="1"/><var name="b7" type="B" ub="1"/><var name="b8" type="B" ub="1"/><var name="b9" type="B" ub="1"/><var name="b10" type="B" ub="1"/><var name="b11" type="B" ub="1"/><var name="b12" type="B" ub="1"/><var name="x13" lb=".526315789473684" ub="1.05263157894737"/><var name="x14" lb=".961538461538462" ub="2.11538461538462"/><var name="x15" lb=".2" ub="1"/><var name="x16" lb=".8" ub=".8"/><var name="x17" lb="6" ub="13"/><var name="x18" lb="6" ub="13"/><var name="x19" lb=".26" ub=".35"/><var name="x20" lb="4.9" ub="5.5"/><var name="x21" lb="55" ub="63"/><var name="x22" lb=".296392099803303" ub=".404171045186323"/><var name="x23" lb=".134723681728774" ub=".229030258938916"/><var name="x24" ub="90"/><var name="x25" ub="200"/><var name="x26" ub="26"/><var name="x27" ub="1"/><var name="x28" ub="34.1"/><var name="x29" ub="1"/></variables><objectives><obj maxOrMin="min" name="defObj_objvar" numberOfObjCoef="2"><coef idx="10">8.20275610163388</coef><coef idx="11">14.6264770436496</coef></obj></objectives><constraints numberOfConstraints="37"><con name="e1" lb="0" ub="0"/><con name="e2" lb="4.960068215723" ub="4.960068215723"/><con name="e3" lb="57.679680208231" ub="57.679680208231"/><con name="e4" lb="44.230616625681" ub="44.230616625681"/><con name="e5" lb="32.102172356117" ub="32.102172356117"/><con name="e6" lb=".140278656706" ub=".140278656706"/><con name="e7" ub="11"/><con name="e8" ub="11"/><con name="e9" lb=".32"/><con name="e10" lb="33.7894914681534" ub="33.7894914681534"/><con name="e11" lb="1" ub="1"/><con name="e12" lb=".29587368369345" ub=".29587368369345"/><con name="e13" lb=".194162178290626" ub=".194162178290626"/><con name="e14" lb="0" ub="0"/><con name="e15" lb="33.7894914681534" ub="33.7894914681534"/><con name="e16" lb="1" ub="1"/><con name="e17" lb="1" ub="1"/><con name="e18" ub="0"/><con name="e19" lb="0"/><con name="e20" ub="0"/><con name="e21" lb="0"/><con name="e22" lb="1" ub="1"/><con name="e23" ub="0"/><con name="e24" lb="0"/><con name="e25" ub="0"/><con name="e26" lb="0"/><con name="e27" lb="1" ub="1"/><con name="e28" ub="0"/><con name="e29" lb="0"/><con name="e30" lb="0"/><con name="e31" ub="0"/><con name="e32" lb="0"/><con name="e33" lb="0"/><con name="e34" ub="2"/><con name="e35" ub="2"/><con name="e36" ub="2"/><con name="e38" lb="1" ub="1"/></constraints><linearConstraintCoefficients numberOfValues="41"><start><el mult="17" incr="1">0</el><el mult="3">19</el><el>20</el><el>21</el><el mult="5">24</el><el mult="5">27</el><el>28</el><el mult="5" incr="3">29</el></start><colIdx><el>23</el><el>19</el><el>20</el><el mult="3" incr="1">16</el><el mult="3" incr="1">16</el><el>25</el><el>26</el><el>21</el><el>22</el><el>24</el><el>27</el><el>28</el><el mult="3" incr="1">0</el><el mult="8" incr="1">1</el><el>6</el><el>8</el><el>1</el><el>3</el><el>7</el><el>2</el><el>3</el><el>7</el><el>2</el><el>4</el><el>7</el><el mult="3" incr="1">9</el></colIdx><value><el mult="19">1</el><el mult="2">-200</el><el mult="6">1</el><el mult="2">-1</el><el mult="12">1</el></value></linearConstraintCoefficients><quadraticCoefficients numberOfQuadraticTerms="6"><qTerm idx="17" idxOne="0" idxTwo="23" coef="1"/><qTerm idx="18" idxOne="1" idxTwo="23" coef="1"/><qTerm idx="19" idxOne="1" idxTwo="23" coef="1"/><qTerm idx="20" idxOne="2" idxTwo="23" coef="1"/><qTerm idx="31" idxOne="3" idxTwo="6" coef="1"/><qTerm idx="32" idxOne="3" idxTwo="8" coef="1"/></quadraticCoefficients><nonlinearExpressions numberOfNonlinearExpressions="22"><nl idx="-1"><product><sum><product><sum><divide><number value="376.046780997472"/><variable idx="20"/></divide><product><sum><divide><number value=".854659090909091"/><variable idx="19"/></divide><negate><divide><number value="11.34"/><variable idx="20"/></divide></negate></sum><number value=".997312113279821"/><variable idx="23"/></product></sum><variable idx="0"/></product><product><sum><divide><variable idx="25" coef=".854659090909091"/><variable idx="19"/></divide><divide><sum><number value="376.046780997472"/><variable idx="25" coef="-11.34"/></sum><variable idx="20"/></divide><product><sum><divide><number value=".854659090909091"/><variable idx="19"/></divide><negate><divide><number value="11.34"/><variable idx="20"/></divide></negate></sum><variable idx="23"/><sum><number value=".997312113279821"/><variable idx="26" coef="-1"/></sum></product></sum><variable idx="1"/></product><divide><variable idx="2" coef="28.341428570246"/><variable idx="19"/></divide><product><sum><product><variable idx="3" coef=".573023666281862"/><variable idx="7"/></product><variable idx="8" coef=".573023666281862"/></sum><variable idx="14"/></product><product><variable idx="0"/><variable idx="4"/><variable idx="7"/><sum><product><sum><product><variable idx="22" coef="3.458e-2"/><variable idx="27"/></product><product><sum><divide><number value="1.81052631578947e-2"/><variable idx="19"/></divide><variable idx="21" coef="3.458e-2"/><variable idx="22" coef="-3.458e-2"/></sum><variable idx="23"/><variable idx="28"/></product></sum><number value=".6"/></product><product><variable idx="14" coef="1.728e-2"/><sum><number value="33.1610917987189"/><variable idx="27" coef="-1"/></sum></product></sum></product><product><variable idx="1"/><variable idx="4"/><variable idx="7"/><sum><product><sum><product><sum><divide><number value="1.81052631578947e-2"/><variable idx="19"/></divide><variable idx="21" coef="3.458e-2"/></sum><variable idx="25"/></product><product><variable idx="22" coef="3.458e-2"/><sum><variable idx="25" coef="-1"/><variable idx="27"/></sum></product><product><sum><divide><number value="1.81052631578947e-2"/><variable idx="19"/></divide><variable idx="21" coef="3.458e-2"/><variable idx="22" coef="-3.458e-2"/></sum><variable idx="23"/><sum><variable idx="26" coef="-1"/><variable idx="28"/></sum></product></sum><number value=".6"/></product><product><variable idx="14" coef="1.728e-2"/><sum><number value="33.1610917987189"/><variable idx="27" coef="-1"/></sum></product></sum></product><product><sum><product><variable idx="0"/><variable idx="5"/><variable idx="7"/></product><product><variable idx="0"/><variable idx="6"/></product></sum><number value=".6"/><sum><product><sum><divide><number value="1.80565982614873e-2"/><variable idx="19"/></divide><variable idx="21" coef="3.44870528772162e-2"/><variable idx="22" coef="-3.44870528772162e-2"/></sum><variable idx="23"/></product><variable idx="22" coef="1.1467105543997"/></sum></product><product><sum><product><variable idx="1"/><variable idx="5"/><variable idx="7"/></product><product><variable idx="1"/><variable idx="6"/></product></sum><number value=".6"/><sum><product><sum><divide><number value="1.81052631578947e-2"/><variable idx="19"/></divide><variable idx="21" coef="3.458e-2"/></sum><variable idx="25"/></product><product><variable idx="22" coef="3.458e-2"/><sum><number value="33.1610917987189"/><variable idx="25" coef="-1"/></sum></product><product><sum><divide><number value="1.81052631578947e-2"/><variable idx="19"/></divide><variable idx="21" coef="3.458e-2"/><variable idx="22" coef="-3.458e-2"/></sum><variable idx="23"/><sum><number value=".997312113279821"/><variable idx="26" coef="-1"/></sum></product></sum></product><product><sum><product><variable idx="2"/><variable idx="5"/><variable idx="7"/></product><product><variable idx="2"/><variable idx="6"/></product></sum><number value="19.8966550792313"/><sum><divide><number value="1.81052631578947e-2"/><variable idx="19"/></divide><variable idx="21" coef="3.458e-2"/></sum></product><number value="1.87912853526074"/></sum><variable idx="9"/></product></nl><nl idx="0"><product><variable idx="14" coef="-21.6"/><variable idx="15"/><variable idx="19"/></product></nl><nl idx="1"><negate><sum><product><power><variable idx="12"/><number value="3"/></power><number value="7.852585706e-3"/></product><product><power><variable idx="13"/><number value="3"/></power><number value=".154288922601"/></product><product><power><variable idx="14"/><number value="3"/></power><number value=".352933730854"/></product><product><power><variable idx="12"/><number value="2"/></power><number value="-4.816150342e-3"/><variable idx="13"/></product><product><power><variable idx="13"/><number value="2"/></power><number value="-5.47943134e-3"/><variable idx="12"/></product><product><power><variable idx="12"/><number value="2"/></power><number value="-2.533808214e-2"/><variable idx="14"/></product><product><power><variable idx="14"/><number value="2"/></power><number value="2.1201136e-4"/><variable idx="12"/></product><product><power><variable idx="13"/><number value="2"/></power><number value="-5.7118497613e-2"/><variable idx="14"/></product><product><power><variable idx="14"/><number value="2"/></power><number value="-4.2739509965e-2"/><variable idx="13"/></product><product><variable idx="12" coef="-1.583097252e-2"/><variable idx="13"/><variable idx="14"/></product><product><power><variable idx="12"/><number value="2"/></power><number value="-1.028174658e-3"/></product><product><power><variable idx="13"/><number value="2"/></power><number value="-.805369774847"/></product><product><power><variable idx="14"/><number value="2"/></power><number value="-.655580550098"/></product><product><variable idx="12" coef="5.7270405947e-2"/><variable idx="13"/></product><product><variable idx="12" coef="7.973036236e-2"/><variable idx="14"/></product><product><variable idx="13" coef=".342091579946"/><variable idx="14"/></product><variable idx="12" coef="-.191345333621"/><variable idx="13" coef="1.188971392024"/><variable idx="14" coef="-.346682012779"/></sum></negate></nl><nl idx="2"><negate><sum><product><power><variable idx="12"/><number value="3"/></power><number value="2.21406746341"/></product><product><power><variable idx="13"/><number value="3"/></power><number value="1.086659693552"/></product><product><power><variable idx="14"/><number value="3"/></power><number value="5.577874978662"/></product><product><power><variable idx="12"/><number value="2"/></power><number value="-.815241697738"/><variable idx="13"/></product><product><power><variable idx="13"/><number value="2"/></power><number value=".509578110533"/><variable idx="12"/></product><product><power><variable idx="12"/><number value="2"/></power><number value="1.561758113326"/><variable idx="14"/></product><product><power><variable idx="14"/><number value="2"/></power><number value="2.212321055022"/><variable idx="12"/></product><product><power><variable idx="13"/><number value="2"/></power><number value="-.612567680918"/><variable idx="14"/></product><product><power><variable idx="14"/><number value="2"/></power><number value=".254008083604"/><variable idx="13"/></product><product><variable idx="12" coef="-.159429747244"/><variable idx="13"/><variable idx="14"/></product><product><power><variable idx="12"/><number value="2"/></power><number value="-8.905599398536"/></product><product><power><variable idx="13"/><number value="2"/></power><number value="-6.095001164559"/></product><product><power><variable idx="14"/><number value="2"/></power><number value="-15.207539664993"/></product><product><variable idx="12" coef="8.9172114876e-2"/><variable idx="13"/></product><product><variable idx="12" coef="-3.273526677614"/><variable idx="14"/></product><product><variable idx="13" coef="2.498376358946"/><variable idx="14"/></product><variable idx="12" coef="2.621894664006"/><variable idx="13" coef="9.284846067558"/><variable idx="14" coef="5.837143728557"/></sum></negate></nl><nl idx="3"><negate><sum><product><power><variable idx="12"/><number value="3"/></power><number value="1.456640469666"/></product><product><power><variable idx="13"/><number value="3"/></power><number value="-5.495718264905"/></product><product><power><variable idx="14"/><number value="3"/></power><number value="-28.456261951645"/></product><product><power><variable idx="12"/><number value="2"/></power><number value=".912917970314"/><variable idx="13"/></product><product><power><variable idx="13"/><number value="2"/></power><number value="-.88119920631"/><variable idx="12"/></product><product><power><variable idx="12"/><number value="2"/></power><number value="-1.049763024383"/><variable idx="14"/></product><product><power><variable idx="14"/><number value="2"/></power><number value="-.308107344863"/><variable idx="12"/></product><product><power><variable idx="13"/><number value="2"/></power><number value="2.043536297441"/><variable idx="14"/></product><product><power><variable idx="14"/><number value="2"/></power><number value="15.609611231641"/><variable idx="13"/></product><product><variable idx="12" coef=".336486837518"/><variable idx="13"/><variable idx="14"/></product><product><power><variable idx="12"/><number value="2"/></power><number value="-4.634160849469"/></product><product><power><variable idx="13"/><number value="2"/></power><number value="31.478262635483"/></product><product><power><variable idx="14"/><number value="2"/></power><number value="34.016843490037"/></product><product><variable idx="12" coef="1.153148892739"/><variable idx="13"/></product><product><variable idx="12" coef="1.168601192983"/><variable idx="14"/></product><product><variable idx="13" coef="-32.056936006397"/><variable idx="14"/></product><variable idx="12" coef="3.405095041238"/><variable idx="13" coef="-54.472915571467"/><variable idx="14" coef="9.56987912824"/></sum></negate></nl><nl idx="4"><negate><sum><product><power><variable idx="12"/><number value="3"/></power><number value="3.334445194766"/></product><product><power><variable idx="13"/><number value="3"/></power><number value="-2.265666208775"/></product><product><power><variable idx="14"/><number value="3"/></power><number value="-20.256566414583"/></product><product><power><variable idx="12"/><number value="2"/></power><number value=".413782262402"/><variable idx="13"/></product><product><power><variable idx="13"/><number value="2"/></power><number value="-3.523622273943"/><variable idx="12"/></product><product><power><variable idx="12"/><number value="2"/></power><number value="-.285910055687"/><variable idx="14"/></product><product><power><variable idx="14"/><number value="2"/></power><number value="-10.110726634622"/><variable idx="12"/></product><product><power><variable idx="13"/><number value="2"/></power><number value="1.95072196814"/><variable idx="14"/></product><product><power><variable idx="14"/><number value="2"/></power><number value="10.308512463418"/><variable idx="13"/></product><product><variable idx="12" coef="5.808426325827"/><variable idx="13"/><variable idx="14"/></product><product><power><variable idx="12"/><number value="2"/></power><number value="-6.932398033967"/></product><product><power><variable idx="13"/><number value="2"/></power><number value="15.80019426934"/></product><product><power><variable idx="14"/><number value="2"/></power><number value="39.197963873266"/></product><product><variable idx="12" coef="7.900706395772"/><variable idx="13"/></product><product><variable idx="12" coef="6.58186092156"/><variable idx="14"/></product><product><variable idx="13" coef="-30.119438887106"/><variable idx="14"/></product><variable idx="12" coef="-6.733798415788"/><variable idx="13" coef="-26.385308892431"/><variable idx="14" coef="-4.098268423019"/></sum></negate></nl><nl idx="5"><negate><sum><product><power><variable idx="12"/><number value="2"/></power><number value="-.194075741585"/></product><product><power><variable idx="13"/><number value="2"/></power><number value="-4.843420334e-3"/></product><product><power><variable idx="14"/><number value="2"/></power><number value="4.736686635e-2"/></product><product><variable idx="12" coef="9.4029979e-5"/><variable idx="13"/></product><product><variable idx="12" coef="1.1329651793e-2"/><variable idx="14"/></product><product><variable idx="13" coef="-1.017352942e-3"/><variable idx="14"/></product><variable idx="12" coef=".382275988592"/><variable idx="13" coef="1.9484588535e-2"/><variable idx="14" coef="-7.7357069039e-2"/></sum></negate></nl><nl idx="9"><product><exp><variable idx="23" coef="-2.9595e-2"/></exp><sum><number value="33.7894914681534"/><variable idx="23"/></sum></product></nl><nl idx="10"><exp><variable idx="23" coef="-2.9595e-2"/></exp></nl><nl idx="11"><product><sum><product><power><variable idx="12"/><number value="2"/></power><number value="1.0073140669e-2"/></product><product><power><variable idx="13"/><number value="2"/></power><number value="1.1394190823e-2"/></product><product><power><variable idx="14"/><number value="2"/></power><number value="5.2910213683e-2"/></product><product><variable idx="12" coef="1.59410872e-4"/><variable idx="13"/></product><product><variable idx="12" coef="8.036404292e-3"/><variable idx="14"/></product><product><variable idx="13" coef="-3.423392047e-3"/><variable idx="14"/></product><variable idx="12" coef="9.7124049148e-2"/><variable idx="13" coef="3.829180344e-2"/><variable idx="14" coef=".370440556286"/></sum><number value="-.134723681728774"/></product></nl><nl idx="12"><product><sum><product><power><variable idx="12"/><number value="2"/></power><number value=".46598008632"/></product><product><power><variable idx="13"/><number value="2"/></power><number value="-7.97004615e-3"/></product><product><power><variable idx="14"/><number value="2"/></power><number value="-1.779288613e-2"/></product><product><variable idx="12" coef="-1.429434551e-2"/><variable idx="13"/></product><product><variable idx="12" coef="-3.832188467e-2"/><variable idx="14"/></product><product><variable idx="13" coef="9.70510229e-3"/><variable idx="14"/></product><variable idx="12" coef="-.88981702163"/><variable idx="13" coef="7.730602595e-2"/><variable idx="14" coef=".39988032723"/></sum><number value="-.134723681728774"/></product></nl><nl idx="13"><negate><divide><product><sum><divide><number value="2715.7894736842"/><variable idx="19"/></divide><variable idx="21" coef="5187"/><variable idx="22" coef="-5187"/></sum><variable idx="23"/></product><sum><variable idx="14" coef="4.32e3"/><variable idx="22" coef="-5187"/></sum></divide></negate></nl><nl idx="14"><product><exp><variable idx="24" coef="-2.9595e-2"/></exp><sum><number value="33.7894914681534"/><variable idx="24"/></sum></product></nl><nl idx="15"><exp><variable idx="24" coef="-2.9595e-2"/></exp></nl><nl idx="22"><product><variable idx="7"/><variable idx="3"/><variable idx="24"/></product></nl><nl idx="23"><product><variable idx="7"/><variable idx="4"/><variable idx="24"/></product></nl><nl idx="24"><product><variable idx="7"/><variable idx="4"/><sum><number value="-200"/><variable idx="24"/></sum></product></nl><nl idx="25"><product><variable idx="7"/><variable idx="5"/><sum><number value="-200"/><variable idx="24"/></sum></product></nl><nl idx="27"><product><sum><divide><variable idx="14" coef="124927.703875072"/><variable idx="22"/></divide><number value="-1.5e5"/></sum><variable idx="6"/></product></nl><nl idx="28"><product><sum><divide><variable idx="14" coef="124927.703875072"/><variable idx="22"/></divide><number value="-1.5e5"/></sum><variable idx="7"/></product></nl><nl idx="29"><product><sum><negate><divide><variable idx="14" coef="4.32e3"/><sum><divide><number value="1.72e-2"/><variable idx="19"/></divide><variable idx="21" coef="3.458e-2"/></sum></divide></negate><number value="1.5e5"/></sum><variable idx="7"/></product></nl><nl idx="30"><product><sum><negate><divide><variable idx="14" coef="4.32e3"/><sum><divide><number value="1.72e-2"/><variable idx="19"/></divide><variable idx="21" coef="3.458e-2"/></sum></divide></negate><number value="1.5e5"/></sum><variable idx="8"/></product></nl></nonlinearExpressions></instanceData></osil>